
Gurobi 9.1.2 (win64, Java) logging started Fri Nov  5 22:26:41 2021

Academic license - for non-commercial use only - expires 2022-10-30
Gurobi Optimizer version 9.1.2 build v9.1.2rc0 (win64)
Thread count: 6 physical cores, 12 logical processors, using up to 12 threads
Optimize a model with 30 rows, 200 columns and 400 nonzeros
Model fingerprint: 0x2a26310b
Variable types: 0 continuous, 200 integer (200 binary)
Coefficient statistics:
  Matrix range     [1e+00, 1e+03]
  Objective range  [4e+01, 9e+02]
  Bounds range     [1e+00, 1e+00]
  RHS range        [1e+00, 9e+02]
Found heuristic solution: objective 3924.0000000
Presolve removed 5 rows and 96 columns
Presolve time: 0.00s
Presolved: 25 rows, 104 columns, 206 nonzeros
Variable types: 0 continuous, 104 integer (104 binary)
Presolved: 25 rows, 104 columns, 206 nonzeros


Root relaxation: objective 5.465604e+03, 71 iterations, 0.00 seconds

    Nodes    |    Current Node    |     Objective Bounds      |     Work
 Expl Unexpl |  Obj  Depth IntInf | Incumbent    BestBd   Gap | It/Node Time

     0     0 5465.60390    0   14 3924.00000 5465.60390  39.3%     -    0s
H    0     0                    4829.0000000 5465.60390  13.2%     -    0s
H    0     0                    5103.0000000 5465.60390  7.11%     -    0s
H    0     0                    5114.0000000 5465.60390  6.88%     -    0s
     0     0 5303.04701    0   13 5114.00000 5303.04701  3.70%     -    0s
H    0     0                    5160.0000000 5303.04701  2.77%     -    0s
     0     0 5272.60351    0    7 5160.00000 5272.60351  2.18%     -    0s
     0     0 5224.70470    0   15 5160.00000 5224.70470  1.25%     -    0s
     0     0 5192.97613    0    8 5160.00000 5192.97613  0.64%     -    0s

Cutting planes:
  Gomory: 10
  Cover: 9
  Clique: 1
  MIR: 6
  StrongCG: 2

Explored 1 nodes (148 simplex iterations) in 0.04 seconds
Thread count was 12 (of 12 available processors)

Solution count 5: 5160 5114 5103 ... 3924

Optimal solution found (tolerance 1.00e-04)
Best objective 5.160000000000e+03, best bound 5.160000000000e+03, gap 0.0000%
